\* Problem: Atelier *\

Maximize
 obj: + 13 X11 + 24 X12 + 31 X13 + 19 X14 + 40 X15 + 29 X16 + 18 X21
 + 25 X22 + 30 X23 + 15 X24 + 43 X25 + 22 X26 + 20 X31 + 20 X32 + 27 X33
 + 25 X34 + 34 X35 + 33 X36 + 23 X41 + 26 X42 + 28 X43 + 18 X44 + 37 X45
 + 30 X46 + 28 X51 + 33 X52 + 34 X53 + 17 X54 + 38 X55 + 20 X56 + 19 X61
 + 36 X62 + 25 X63 + 27 X64 + 45 X65 + 24 X66

Subject To
 personne1: + X16 + X15 + X14 + X13 + X12 + X11 = 1
 personne2: + X26 + X25 + X24 + X23 + X22 + X21 = 1
 personne3: + X36 + X35 + X34 + X33 + X32 + X31 = 1
 personne4: + X46 + X45 + X44 + X43 + X42 + X41 = 1
 personne5: + X56 + X55 + X54 + X53 + X52 + X51 = 1
 personne6: + X66 + X65 + X64 + X63 + X62 + X61 = 1
 machine1: + X61 + X51 + X41 + X31 + X21 + X11 = 1
 machine2: + X62 + X52 + X42 + X32 + X22 + X12 = 1
 machine3: + X63 + X53 + X43 + X33 + X23 + X13 = 1
 machine4: + X64 + X54 + X44 + X34 + X24 + X14 = 1
 machine5: + X65 + X55 + X45 + X35 + X25 + X15 = 1
 machine6: + X66 + X56 + X46 + X36 + X26 + X16 = 1

Bounds
 0 <= X11 <= 1
 0 <= X12 <= 1
 0 <= X13 <= 1
 0 <= X14 <= 1
 0 <= X15 <= 1
 0 <= X16 <= 1
 0 <= X21 <= 1
 0 <= X22 <= 1
 0 <= X23 <= 1
 0 <= X24 <= 1
 0 <= X25 <= 1
 0 <= X26 <= 1
 0 <= X31 <= 1
 0 <= X32 <= 1
 0 <= X33 <= 1
 0 <= X34 <= 1
 0 <= X35 <= 1
 0 <= X36 <= 1
 0 <= X41 <= 1
 0 <= X42 <= 1
 0 <= X43 <= 1
 0 <= X44 <= 1
 0 <= X45 <= 1
 0 <= X46 <= 1
 0 <= X51 <= 1
 0 <= X52 <= 1
 0 <= X53 <= 1
 0 <= X54 <= 1
 0 <= X55 <= 1
 0 <= X56 <= 1
 0 <= X61 <= 1
 0 <= X62 <= 1
 0 <= X63 <= 1
 0 <= X64 <= 1
 0 <= X65 <= 1
 0 <= X66 <= 1

Generals
 X11
 X12
 X13
 X14
 X15
 X16
 X21
 X22
 X23
 X24
 X25
 X26
 X31
 X32
 X33
 X34
 X35
 X36
 X41
 X42
 X43
 X44
 X45
 X46
 X51
 X52
 X53
 X54
 X55
 X56
 X61
 X62
 X63
 X64
 X65
 X66

End
